Company = [AIMMS,SAS,Keelvar,Microsoft,Google,IBM,Cadence,Quintiq,Siemens,Cosling,COSYTEC,LocalSolver,N-side,UTRC-I,Zoomer];
Disappointment = [10,10,10,10,20,10,5,10,10,5,5,5,5,5,5];
Lower = [5,5,3,10,10,10,5,10,10,3,3,3,3,5,5];
Upper = [10,10,6,20,20,20,10,20,20,6,6,6,6,10,10];
DailyRate = [20,20,10,30,30,30,10,10,20,5,5,5,5,10,10];
Parallel = [2,2,2,2,2,2,2,2,2,2,2,2,2,2,2];
